p edge 281 1046
e 1 2
e 1 8
e 1 94
e 1 106
e 2 3
e 2 5
e 2 7
e 2 71
e 2 83
e 2 85
e 2 93
e 3 4
e 3 94
e 3 106
e 4 5
e 4 17
e 4 85
e 4 91
e 4 93
e 4 95
e 4 97
e 5 6
e 5 16
e 5 106
e 6 7
e 6 13
e 6 15
e 6 47
e 6 69
e 6 71
e 6 85
e 7 8
e 7 12
e 7 106
e 8 9
e 8 11
e 8 71
e 8 73
e 8 81
e 8 83
e 9 10
e 9 94
e 9 106
e 10 11
e 10 27
e 10 73
e 10 79
e 10 81
e 10 135
e 10 243
e 11 12
e 11 26
e 11 106
e 12 13
e 12 25
e 12 67
e 12 69
e 12 71
e 12 73
e 13 14
e 13 24
e 13 106
e 14 15
e 14 21
e 14 23
e 14 47
e 14 49
e 14 69
e 14 137
e 15 16
e 15 20
e 15 106
e 16 17
e 16 19
e 16 47
e 16 85
e 16 87
e 16 91
e 17 18
e 17 96
e 17 106
e 18 19
e 18 41
e 18 87
e 18 89
e 18 91
e 18 101
e 18 103
e 19 20
e 19 40
e 19 106
e 20 21
e 20 39
e 20 45
e 20 47
e 20 49
e 20 87
e 21 22
e 21 38
e 21 106
e 22 23
e 22 33
e 22 35
e 22 49
e 22 51
e 22 53
e 22 137
e 23 24
e 23 32
e 23 106
e 24 25
e 24 31
e 24 67
e 24 69
e 24 137
e 24 280
e 25 26
e 25 30
e 25 106
e 26 27
e 26 29
e 26 67
e 26 73
e 26 75
e 26 79
e 27 28
e 27 106
e 27 134
e 28 29
e 28 61
e 28 75
e 28 77
e 28 79
e 28 133
e 28 183
e 29 30
e 29 60
e 29 106
e 30 31
e 30 59
e 30 65
e 30 67
e 30 75
e 30 280
e 31 32
e 31 58
e 31 106
e 32 33
e 32 53
e 32 55
e 32 137
e 32 277
e 32 280
e 33 34
e 33 54
e 33 106
e 34 35
e 34 51
e 34 53
e 34 171
e 34 266
e 35 36
e 35 38
e 35 106
e 36 37
e 36 51
e 36 155
e 36 171
e 36 266
e 37 38
e 37 44
e 37 106
e 37 156
e 38 39
e 38 45
e 38 49
e 38 51
e 38 155
e 39 40
e 39 44
e 39 106
e 40 41
e 40 43
e 40 45
e 40 87
e 40 89
e 40 238
e 41 42
e 41 102
e 41 106
e 42 43
e 42 89
e 42 111
e 42 161
e 42 204
e 42 236
e 42 238
e 43 44
e 43 106
e 43 160
e 44 45
e 44 155
e 44 157
e 44 238
e 44 264
e 45 46
e 45 50
e 45 88
e 45 263
e 46 47
e 46 49
e 46 87
e 46 139
e 46 147
e 46 149
e 46 151
e 47 48
e 47 70
e 47 86
e 48 49
e 48 69
e 48 137
e 48 139
e 48 141
e 48 147
e 48 224
e 49 50
e 49 138
e 50 51
e 50 139
e 50 151
e 50 153
e 50 155
e 50 258
e 51 52
e 51 138
e 51 154
e 52 53
e 52 153
e 52 226
e 52 228
e 52 266
e 53 54
e 53 138
e 53 276
e 53 279
e 54 55
e 54 171
e 54 266
e 54 277
e 55 56
e 55 58
e 55 106
e 56 57
e 56 171
e 56 266
e 56 274
e 56 277
e 57 58
e 57 64
e 57 106
e 57 172
e 58 59
e 58 65
e 58 274
e 58 277
e 58 280
e 59 60
e 59 64
e 59 106
e 60 61
e 60 63
e 60 65
e 60 75
e 60 77
e 60 179
e 61 62
e 61 106
e 61 129
e 62 63
e 62 77
e 62 128
e 62 177
e 62 179
e 62 181
e 62 210
e 63 64
e 63 106
e 63 178
e 64 65
e 64 173
e 64 179
e 64 271
e 64 274
e 65 66
e 65 76
e 65 273
e 65 281
e 66 67
e 66 75
e 66 143
e 66 220
e 66 222
e 66 252
e 66 280
e 67 68
e 67 72
e 67 74
e 68 69
e 68 137
e 68 141
e 68 143
e 68 222
e 68 224
e 68 280
e 69 70
e 69 72
e 70 71
e 70 85
e 70 141
e 70 145
e 70 147
e 70 215
e 71 72
e 71 82
e 71 84
e 72 73
e 72 141
e 72 143
e 72 145
e 72 233
e 73 74
e 73 80
e 73 82
e 74 75
e 74 79
e 74 143
e 74 220
e 74 233
e 74 241
e 75 76
e 75 78
e 76 77
e 76 150
e 76 179
e 76 218
e 76 220
e 76 252
e 77 78
e 77 129
e 77 180
e 77 182
e 78 79
e 78 150
e 78 183
e 78 220
e 78 241
e 78 259
e 79 80
e 79 134
e 79 242
e 80 81
e 80 231
e 80 233
e 80 241
e 80 243
e 80 261
e 81 82
e 81 94
e 81 194
e 82 83
e 82 145
e 82 229
e 82 231
e 82 233
e 83 84
e 83 94
e 83 194
e 84 85
e 84 93
e 84 145
e 84 215
e 84 229
e 84 245
e 85 86
e 85 92
e 86 87
e 86 91
e 86 147
e 86 149
e 86 215
e 86 217
e 87 88
e 87 90
e 88 89
e 88 149
e 88 151
e 88 219
e 88 238
e 88 240
e 89 90
e 89 102
e 89 203
e 89 237
e 90 91
e 90 101
e 90 149
e 90 217
e 90 219
e 90 251
e 91 92
e 91 96
e 91 98
e 92 93
e 92 97
e 92 215
e 92 217
e 92 245
e 92 247
e 93 94
e 93 194
e 94 95
e 94 97
e 94 99
e 94 105
e 94 107
e 94 123
e 94 124
e 94 132
e 94 135
e 94 136
e 94 193
e 94 195
e 94 197
e 94 199
e 94 243
e 94 244
e 95 96
e 95 106
e 96 97
e 96 99
e 96 101
e 96 103
e 96 105
e 97 98
e 97 194
e 98 99
e 98 101
e 98 217
e 98 247
e 98 249
e 98 251
e 99 100
e 99 104
e 99 194
e 100 101
e 100 199
e 100 202
e 100 249
e 100 251
e 100 253
e 100 256
e 101 102
e 101 104
e 101 203
e 102 103
e 102 109
e 102 111
e 102 202
e 102 204
e 103 104
e 103 106
e 104 105
e 104 107
e 104 109
e 104 199
e 104 202
e 105 106
e 106 107
e 106 109
e 106 111
e 106 113
e 106 115
e 106 117
e 106 119
e 106 121
e 106 123
e 106 124
e 106 126
e 106 128
e 106 130
e 106 132
e 106 133
e 106 135
e 106 136
e 106 157
e 106 159
e 106 161
e 106 163
e 106 169
e 106 171
e 106 173
e 106 175
e 106 177
e 107 108
e 108 109
e 108 121
e 108 123
e 108 197
e 108 199
e 108 200
e 108 202
e 109 110
e 110 111
e 110 113
e 110 121
e 110 189
e 110 200
e 110 202
e 110 204
e 111 112
e 112 113
e 112 115
e 112 161
e 112 189
e 112 204
e 112 206
e 112 236
e 113 114
e 113 120
e 114 115
e 114 117
e 114 119
e 114 187
e 114 189
e 114 206
e 114 208
e 115 116
e 115 162
e 116 117
e 116 163
e 116 167
e 116 169
e 116 206
e 116 208
e 116 212
e 117 118
e 117 176
e 118 119
e 118 128
e 118 177
e 118 181
e 118 187
e 118 208
e 118 210
e 119 120
e 119 127
e 120 121
e 120 126
e 120 187
e 120 189
e 120 191
e 120 200
e 121 122
e 122 123
e 122 124
e 122 126
e 122 191
e 122 195
e 122 197
e 122 200
e 124 125
e 125 126
e 125 130
e 125 132
e 125 185
e 125 191
e 125 193
e 125 195
e 126 127
e 127 128
e 127 130
e 127 181
e 127 185
e 127 187
e 127 191
e 128 129
e 129 130
e 129 133
e 129 181
e 129 183
e 129 185
e 130 131
e 131 132
e 131 133
e 131 136
e 131 183
e 131 185
e 131 193
e 131 244
e 133 134
e 134 135
e 134 136
e 134 183
e 134 243
e 134 244
e 137 138
e 137 279
e 138 139
e 138 153
e 138 224
e 138 226
e 139 140
e 139 148
e 139 152
e 139 225
e 140 141
e 140 147
e 140 186
e 140 188
e 140 190
e 140 209
e 140 224
e 141 142
e 141 144
e 141 146
e 142 143
e 142 188
e 142 190
e 142 201
e 142 205
e 142 222
e 142 224
e 143 144
e 143 221
e 143 234
e 144 145
e 144 188
e 144 205
e 144 207
e 144 233
e 144 235
e 145 146
e 145 214
e 145 230
e 146 147
e 146 188
e 146 207
e 146 209
e 146 211
e 146 215
e 147 148
e 147 216
e 148 149
e 148 151
e 148 180
e 148 182
e 148 186
e 148 209
e 149 150
e 149 216
e 149 218
e 150 151
e 150 180
e 150 182
e 150 219
e 150 240
e 151 152
e 151 259
e 151 263
e 152 153
e 152 182
e 152 184
e 152 186
e 152 192
e 152 258
e 153 154
e 153 225
e 153 227
e 153 257
e 154 155
e 154 228
e 154 258
e 154 266
e 155 156
e 155 263
e 155 267
e 156 157
e 156 171
e 156 264
e 156 266
e 157 158
e 157 160
e 158 159
e 158 165
e 158 171
e 158 264
e 158 266
e 159 160
e 159 162
e 159 164
e 160 161
e 160 165
e 160 236
e 160 238
e 160 264
e 161 162
e 162 163
e 162 165
e 162 167
e 162 206
e 162 236
e 163 164
e 163 168
e 164 165
e 164 167
e 164 171
e 164 266
e 165 166
e 165 235
e 165 239
e 165 265
e 166 167
e 166 228
e 166 230
e 166 232
e 166 266
e 167 168
e 167 207
e 167 213
e 167 235
e 168 169
e 168 171
e 168 212
e 168 266
e 169 170
e 169 176
e 170 171
e 170 175
e 170 212
e 170 266
e 170 269
e 171 172
e 171 174
e 172 173
e 172 266
e 172 271
e 172 274
e 173 174
e 173 178
e 174 175
e 174 266
e 174 269
e 174 271
e 175 176
e 175 178
e 176 177
e 176 208
e 176 210
e 176 212
e 176 269
e 177 178
e 178 179
e 178 210
e 178 269
e 178 271
e 179 180
e 179 270
e 179 273
e 180 181
e 180 210
e 180 216
e 180 218
e 181 182
e 181 186
e 181 209
e 182 183
e 182 185
e 182 259
e 183 184
e 183 242
e 184 185
e 184 193
e 184 244
e 184 257
e 184 259
e 184 262
e 185 186
e 185 192
e 186 187
e 186 191
e 186 225
e 187 188
e 187 190
e 187 209
e 188 189
e 188 206
e 188 208
e 189 190
e 189 201
e 189 205
e 190 191
e 190 200
e 190 223
e 190 225
e 191 192
e 191 196
e 192 193
e 192 195
e 192 225
e 192 227
e 192 257
e 193 194
e 194 195
e 194 197
e 194 199
e 194 227
e 194 229
e 194 231
e 194 243
e 194 244
e 194 245
e 194 247
e 194 249
e 194 255
e 194 256
e 194 257
e 194 261
e 194 262
e 195 196
e 196 197
e 196 200
e 196 223
e 196 225
e 196 227
e 196 255
e 197 198
e 198 199
e 198 200
e 198 202
e 198 223
e 198 253
e 198 255
e 198 256
e 200 201
e 201 202
e 201 204
e 201 221
e 201 223
e 201 253
e 202 203
e 203 204
e 203 219
e 203 221
e 203 251
e 203 253
e 204 205
e 204 237
e 205 206
e 205 221
e 205 234
e 205 236
e 206 207
e 206 235
e 207 208
e 207 212
e 207 214
e 207 230
e 208 209
e 208 211
e 209 210
e 209 216
e 210 211
e 210 270
e 211 212
e 211 214
e 211 216
e 211 246
e 211 269
e 212 213
e 212 268
e 213 214
e 213 228
e 213 230
e 213 266
e 214 215
e 214 229
e 214 245
e 214 268
e 215 216
e 215 246
e 216 217
e 216 270
e 217 218
e 217 246
e 217 248
e 218 219
e 218 251
e 218 270
e 218 273
e 219 220
e 219 237
e 219 252
e 220 221
e 220 234
e 220 240
e 221 222
e 221 237
e 221 252
e 222 223
e 222 253
e 222 279
e 222 281
e 223 224
e 223 226
e 223 254
e 224 225
e 224 279
e 225 226
e 226 227
e 226 255
e 226 276
e 226 279
e 227 228
e 228 229
e 228 231
e 228 245
e 228 247
e 228 249
e 228 255
e 228 256
e 228 257
e 228 261
e 228 262
e 228 265
e 228 267
e 228 268
e 228 272
e 228 275
e 228 276
e 228 278
e 229 230
e 230 231
e 230 233
e 230 235
e 231 232
e 232 233
e 232 235
e 232 239
e 232 241
e 232 261
e 232 265
e 233 234
e 234 235
e 234 237
e 234 239
e 234 241
e 235 236
e 236 237
e 236 239
e 237 238
e 237 240
e 238 239
e 238 263
e 239 240
e 239 260
e 239 264
e 240 241
e 240 259
e 240 263
e 241 242
e 241 260
e 242 243
e 242 244
e 242 259
e 242 261
e 242 262
e 245 246
e 246 247
e 246 268
e 246 270
e 246 272
e 247 248
e 248 249
e 248 251
e 248 270
e 248 272
e 248 273
e 248 275
e 249 250
e 250 251
e 250 253
e 250 256
e 250 273
e 250 275
e 250 278
e 250 281
e 251 252
e 252 253
e 252 273
e 252 281
e 253 254
e 254 255
e 254 256
e 254 276
e 254 278
e 254 279
e 254 281
e 257 258
e 258 259
e 258 262
e 258 263
e 258 267
e 259 260
e 260 261
e 260 262
e 260 263
e 260 265
e 260 267
e 263 264
e 264 265
e 264 267
e 265 266
e 266 267
e 266 268
e 266 272
e 266 275
e 266 276
e 266 278
e 268 269
e 269 270
e 269 272
e 270 271
e 271 272
e 271 273
e 271 275
e 273 274
e 274 275
e 274 278
e 274 281
e 276 277
e 277 278
e 277 279
e 277 281
e 279 280
e 280 281
